&control
iprint = 1
prefix = 'water'
calculation = 'scf'
restart_mode = 'from_scratch'
wf_collect = .true.
disk_io = 'none'
tstress = .false.
tprnfor = .false.
outdir = './'
wfcdir = './'
pseudo_dir = './'
/
&system
ibrav = 1
celldm(1) = 36.82773596
nat = 768
ntyp = 2
ecutwfc = 80.0
ecutfock = 90.0
input_dft = 'pbe0'
/
&electrons
diago_thr_init=5.0d-4
! startingwfc='file'
! startingpot='file'
mixing_mode = 'plain'
mixing_beta = 0.7
mixing_ndim = 8
diagonalization = 'david'
diago_david_ndim = 4
diago_full_acc = .true.
electron_maxstep = 30
scf_must_converge = .false.
/
ATOMIC_SPECIES
O   15.999   O.pbe-mt_fhi.UPF
H    1.008   H.pbe-mt_fhi.UPF
ATOMIC_POSITIONS alat
O		 0.055404	0.17561	0.384878
H		 0.0782535	0.221555	0.385427
H		 0.090209	0.139086	0.3942375
O		 0.48712	0.0439435	0.013319
H		 0.441782	0.028878	0.032038
H		 0.5114825	0.003617	-0.007016
O		 0.2469365	0.214481	0.3522375
H		 0.229444	0.1767		0.3222445
H		 0.245678	0.1993745	0.4012615
O		 0.1718495	0.3758155	0.005059
H		 0.1612735	0.3278075	-0.009668
H		 0.159996	0.3814955	0.0546625
O		 0.438567	0.288802	0.2957785
H		 0.472628	0.280212	0.2583715
H		 0.4267085	0.2444165	0.318633
O		 0.30959	0.330218	0.4195015
H		 0.2668675	0.3230035	0.446997
H		 0.310329	0.297337	0.38011
O		 0.357645	0.407857	0.269387
H		 0.385313	0.3681615	0.286469
H		 0.3871495	0.4498045	0.2676965
O		 0.04153	0.2172365	0.2438245
H		 0.0368195	0.168336	0.2586385
H		 0.08433	0.237156	0.263939
O		 0.0799415	0.380411	0.12349
H		 0.039851	0.3669105	0.094447
H		 0.0631625	0.403553	0.166105
O		 0.145924	0.2503975	0.4736905
H		 0.184973	0.219364	0.4857335
H		 0.107409	0.24306		0.5067975
O		 0.1491915	0.43757		0.379515
H		 0.133475	0.405017	0.4159365
H		 0.199919	0.444307	0.3833275
O		 0.2276395	0.391158	0.205282
H		 0.2763445	0.3963095	0.2205925
H		 0.2160745	0.4285955	0.172149
O		 0.3946805	0.150896	0.0143175
H		 0.432434	0.1161675	0.0156415
H		 0.3994715	0.1828995	0.054141
O		 0.3803675	0.2560695	0.1451745
H		 0.337034	0.283212	0.1408795
H		 0.378279	0.227085	0.187466
O		 0.148339	0.0628755	0.3299815
H		 0.1460115	0.0124855	0.3393885
H		 0.1948345	0.0747525	0.3118105
O		 0.3820595	0.478671	0.0730465
H		 0.3338055	0.4899855	0.059762
H		 0.3957035	0.434101	0.051588
O		 0.055166	0.2073435	0.09952
H		 0.0347425	0.2478545	0.075547
H		 0.04157	0.208098	0.1489935
O		 0.252078	0.1638925	-0.0014815
H		 0.301564	0.154773	0.008581
H		 0.2229325	0.1304715	0.024339
O		 0.3533145	0.1345835	0.244476
H		 0.3871705	0.099444	0.228595
H		 0.363356	0.147221	0.293182
O		 0.407798	0.147457	0.375872
H		 0.3977815	0.1481905	0.426194
H		 0.457012	0.1597		0.368052
O		 0.2559755	0.490097	0.504797
H		 0.2683035	0.504095	0.4569945
H		 0.220941	0.452639	0.50315
O		 0.4752295	0.310341	0.064257
H		 0.455387	0.337572	0.025557
H		 0.4376635	0.2851		0.0884355
O		 0.073975	0.0711565	0.2088245
H		 0.1102735	0.0572455	0.1753265
H		 0.092191	0.0667385	0.256593
O		 0.121899	0.0832505	0.0455975
H		 0.086401	0.057887	0.0185815
H		 0.098843	0.112776	0.0806695
O		 0.2913125	0.484061	0.3737955
H		 0.336734	0.506125	0.3829035
H		 0.2968215	0.447747	0.337959
O		 0.0102165	0.4206265	0.3359355
H		 0.060405	0.4284705	0.3432115
H		 0.002104	0.3712655	0.324503
O		 0.424692	0.3890725	0.464526
H		 0.3792495	0.366505	0.456855
H		 0.440142	0.411609	0.421091
O		 0.42978	0.0182205	0.200669
H		 0.4131965	0.0029395	0.154575
H		 0.479526	0.0304635	0.197749
O		 0.1326085	0.3054895	0.3085615
H		 0.1560135	0.336898	0.2754135
H		 0.167861	0.2798285	0.3356185
O		 0.2134185	0.01268		0.137485
H		 0.2260155	0.013542	0.087753
H		 0.2271395	0.0570135	0.1593745
O		 0.220372	0.145983	0.2229365
H		 0.2711255	0.1403		0.227924
H		 0.210347	0.1908285	0.2001025
O		 0.182306	0.2654185	0.148097
H		 0.175379	0.3141345	0.1626545
H		 0.1378155	0.2460695	0.131385
O		 0.055404	0.17561		0.884878
H		 0.0782535	0.221555	0.885427
H		 0.090209	0.139086	0.8942375
O		 0.48712	0.0439435	0.513319
H		 0.441782	0.028878	0.532038
H		 0.5114825	0.003617	0.492984
O		 0.2469365	0.214481	0.8522375
H		 0.229444	0.1767		0.8222445
H		 0.245678	0.1993745	0.9012615
O		 0.1718495	0.3758155	0.505059
H		 0.1612735	0.3278075	0.490332
H		 0.159996	0.3814955	0.5546625
O		 0.438567	0.288802	0.7957785
H		 0.472628	0.280212	0.7583715
H		 0.4267085	0.2444165	0.818633
O		 0.30959	0.330218	0.9195015
H		 0.2668675	0.3230035	0.946997
H		 0.310329	0.297337	0.88011
O		 0.357645	0.407857	0.769387
H		 0.385313	0.3681615	0.786469
H		 0.3871495	0.4498045	0.7676965
O		 0.04153	0.2172365	0.7438245
H		 0.0368195	0.168336	0.7586385
H		 0.08433	0.237156	0.763939
O		 0.0799415	0.380411	0.62349
H		 0.039851	0.3669105	0.594447
H		 0.0631625	0.403553	0.666105
O		 0.145924	0.2503975	0.9736905
H		 0.184973	0.219364	0.9857335
H		 0.107409	0.24306		1.0067975
O		 0.1491915	0.43757		0.879515
H		 0.133475	0.405017	0.9159365
H		 0.199919	0.444307	0.8833275
O		 0.2276395	0.391158	0.705282
H		 0.2763445	0.3963095	0.7205925
H		 0.2160745	0.4285955	0.672149
O		 0.3946805	0.150896	0.5143175
H		 0.432434	0.1161675	0.5156415
H		 0.3994715	0.1828995	0.554141
O		 0.3803675	0.2560695	0.6451745
H		 0.337034	0.283212	0.6408795
H		 0.378279	0.227085	0.687466
O		 0.148339	0.0628755	0.8299815
H		 0.1460115	0.0124855	0.8393885
H		 0.1948345	0.0747525	0.8118105
O		 0.3820595	0.478671	0.5730465
H		 0.3338055	0.4899855	0.559762
H		 0.3957035	0.434101	0.551588
O		 0.055166	0.2073435	0.59952
H		 0.0347425	0.2478545	0.575547
H		 0.04157	0.208098	0.6489935
O		 0.252078	0.1638925	0.4985185
H		 0.301564	0.154773	0.508581
H		 0.2229325	0.1304715	0.524339
O		 0.3533145	0.1345835	0.744476
H		 0.3871705	0.099444	0.728595
H		 0.363356	0.147221	0.793182
O		 0.407798	0.147457	0.875872
H		 0.3977815	0.1481905	0.926194
H		 0.457012	0.1597		0.868052
O		 0.2559755	0.490097	1.004797
H		 0.2683035	0.504095	0.9569945
H		 0.220941	0.452639	1.00315
O		 0.4752295	0.310341	0.564257
H		 0.455387	0.337572	0.525557
H		 0.4376635	0.2851		0.5884355
O		 0.073975	0.0711565	0.7088245
H		 0.1102735	0.0572455	0.6753265
H		 0.092191	0.0667385	0.756593
O		 0.121899	0.0832505	0.5455975
H		 0.086401	0.057887	0.5185815
H		 0.098843	0.112776	0.5806695
O		 0.2913125	0.484061	0.8737955
H		 0.336734	0.506125	0.8829035
H		 0.2968215	0.447747	0.837959
O		 0.0102165	0.4206265	0.8359355
H		 0.060405	0.4284705	0.8432115
H		 0.002104	0.3712655	0.824503
O		 0.424692	0.3890725	0.964526
H		 0.3792495	0.366505	0.956855
H		 0.440142	0.411609	0.921091
O		 0.42978	0.0182205	0.700669
H		 0.4131965	0.0029395	0.654575
H		 0.479526	0.0304635	0.697749
O		 0.1326085	0.3054895	0.8085615
H		 0.1560135	0.336898	0.7754135
H		 0.167861	0.2798285	0.8356185
O		 0.2134185	0.01268		0.637485
H		 0.2260155	0.013542	0.587753
H		 0.2271395	0.0570135	0.6593745
O		 0.220372	0.145983	0.7229365
H		 0.2711255	0.1403		0.727924
H		 0.210347	0.1908285	0.7001025
O		 0.182306	0.2654185	0.648097
H		 0.175379	0.3141345	0.6626545
H		 0.1378155	0.2460695	0.631385
O		 0.055404	0.67561		0.384878
H		 0.0782535	0.721555	0.385427
H		 0.090209	0.639086	0.3942375
O		 0.48712	0.5439435	0.013319
H		 0.441782	0.528878	0.032038
H		 0.5114825	0.503617	-0.007016
O		 0.2469365	0.714481	0.3522375
H		 0.229444	0.6767		0.3222445
H		 0.245678	0.6993745	0.4012615
O		 0.1718495	0.8758155	0.005059
H		 0.1612735	0.8278075	-0.009668
H		 0.159996	0.8814955	0.0546625
O		 0.438567	0.788802	0.2957785
H		 0.472628	0.780212	0.2583715
H		 0.4267085	0.7444165	0.318633
O		 0.30959	0.830218	0.4195015
H		 0.2668675	0.8230035	0.446997
H		 0.310329	0.797337	0.38011
O		 0.357645	0.907857	0.269387
H		 0.385313	0.8681615	0.286469
H		 0.3871495	0.9498045	0.2676965
O		 0.04153	0.7172365	0.2438245
H		 0.0368195	0.668336	0.2586385
H		 0.08433	0.737156	0.263939
O		 0.0799415	0.880411	0.12349
H		 0.039851	0.8669105	0.094447
H		 0.0631625	0.903553	0.166105
O		 0.145924	0.7503975	0.4736905
H		 0.184973	0.719364	0.4857335
H		 0.107409	0.74306		0.5067975
O		 0.1491915	0.93757		0.379515
H		 0.133475	0.905017	0.4159365
H		 0.199919	0.944307	0.3833275
O		 0.2276395	0.891158	0.205282
H		 0.2763445	0.8963095	0.2205925
H		 0.2160745	0.9285955	0.172149
O		 0.3946805	0.650896	0.0143175
H		 0.432434	0.6161675	0.0156415
H		 0.3994715	0.6828995	0.054141
O		 0.3803675	0.7560695	0.1451745
H		 0.337034	0.783212	0.1408795
H		 0.378279	0.727085	0.187466
O		 0.148339	0.5628755	0.3299815
H		 0.1460115	0.5124855	0.3393885
H		 0.1948345	0.5747525	0.3118105
O		 0.3820595	0.978671	0.0730465
H		 0.3338055	0.9899855	0.059762
H		 0.3957035	0.934101	0.051588
O		 0.055166	0.7073435	0.09952
H		 0.0347425	0.7478545	0.075547
H		 0.04157	0.708098	0.1489935
O		 0.252078	0.6638925	-0.0014815
H		 0.301564	0.654773	0.008581
H		 0.2229325	0.6304715	0.024339
O		 0.3533145	0.6345835	0.244476
H		 0.3871705	0.599444	0.228595
H		 0.363356	0.647221	0.293182
O		 0.407798	0.647457	0.375872
H		 0.3977815	0.6481905	0.426194
H		 0.457012	0.6597		0.368052
O		 0.2559755	0.990097	0.504797
H		 0.2683035	1.004095	0.4569945
H		 0.220941	0.952639	0.50315
O		 0.4752295	0.810341	0.064257
H		 0.455387	0.837572	0.025557
H		 0.4376635	0.7851		0.0884355
O		 0.073975	0.5711565	0.2088245
H		 0.1102735	0.5572455	0.1753265
H		 0.092191	0.5667385	0.256593
O		 0.121899	0.5832505	0.0455975
H		 0.086401	0.557887	0.0185815
H		 0.098843	0.612776	0.0806695
O		 0.2913125	0.984061	0.3737955
H		 0.336734	1.006125	0.3829035
H		 0.2968215	0.947747	0.337959
O		 0.0102165	0.9206265	0.3359355
H		 0.060405	0.9284705	0.3432115
H		 0.002104	0.8712655	0.324503
O		 0.424692	0.8890725	0.464526
H		 0.3792495	0.866505	0.456855
H		 0.440142	0.911609	0.421091
O		 0.42978	0.5182205	0.200669
H		 0.4131965	0.5029395	0.154575
H		 0.479526	0.5304635	0.197749
O		 0.1326085	0.8054895	0.3085615
H		 0.1560135	0.836898	0.2754135
H		 0.167861	0.7798285	0.3356185
O		 0.2134185	0.51268		0.137485
H		 0.2260155	0.513542	0.087753
H		 0.2271395	0.5570135	0.1593745
O		 0.220372	0.645983	0.2229365
H		 0.2711255	0.6403		0.227924
H		 0.210347	0.6908285	0.2001025
O		 0.182306	0.7654185	0.148097
H		 0.175379	0.8141345	0.1626545
H		 0.1378155	0.7460695	0.131385
O		 0.055404	0.67561		0.884878
H		 0.0782535	0.721555	0.885427
H		 0.090209	0.639086	0.8942375
O		 0.48712	0.5439435	0.513319
H		 0.441782	0.528878	0.532038
H		 0.5114825	0.503617	0.492984
O		 0.2469365	0.714481	0.8522375
H		 0.229444	0.6767		0.8222445
H		 0.245678	0.6993745	0.9012615
O		 0.1718495	0.8758155	0.505059
H		 0.1612735	0.8278075	0.490332
H		 0.159996	0.8814955	0.5546625
O		 0.438567	0.788802	0.7957785
H		 0.472628	0.780212	0.7583715
H		 0.4267085	0.7444165	0.818633
O		 0.30959	0.830218	0.9195015
H		 0.2668675	0.8230035	0.946997
H		 0.310329	0.797337	0.88011
O		 0.357645	0.907857	0.769387
H		 0.385313	0.8681615	0.786469
H		 0.3871495	0.9498045	0.7676965
O		 0.04153	0.7172365	0.7438245
H		 0.0368195	0.668336	0.7586385
H		 0.08433	0.737156	0.763939
O		 0.0799415	0.880411	0.62349
H		 0.039851	0.8669105	0.594447
H		 0.0631625	0.903553	0.666105
O		 0.145924	0.7503975	0.9736905
H		 0.184973	0.719364	0.9857335
H		 0.107409	0.74306		1.0067975
O		 0.1491915	0.93757		0.879515
H		 0.133475	0.905017	0.9159365
H		 0.199919	0.944307	0.8833275
O		 0.2276395	0.891158	0.705282
H		 0.2763445	0.8963095	0.7205925
H		 0.2160745	0.9285955	0.672149
O		 0.3946805	0.650896	0.5143175
H		 0.432434	0.6161675	0.5156415
H		 0.3994715	0.6828995	0.554141
O		 0.3803675	0.7560695	0.6451745
H		 0.337034	0.783212	0.6408795
H		 0.378279	0.727085	0.687466
O		 0.148339	0.5628755	0.8299815
H		 0.1460115	0.5124855	0.8393885
H		 0.1948345	0.5747525	0.8118105
O		 0.3820595	0.978671	0.5730465
H		 0.3338055	0.9899855	0.559762
H		 0.3957035	0.934101	0.551588
O		 0.055166	0.7073435	0.59952
H		 0.0347425	0.7478545	0.575547
H		 0.04157	0.708098	0.6489935
O		 0.252078	0.6638925	0.4985185
H		 0.301564	0.654773	0.508581
H		 0.2229325	0.6304715	0.524339
O		 0.3533145	0.6345835	0.744476
H		 0.3871705	0.599444	0.728595
H		 0.363356	0.647221	0.793182
O		 0.407798	0.647457	0.875872
H		 0.3977815	0.6481905	0.926194
H		 0.457012	0.6597		0.868052
O		 0.2559755	0.990097	1.004797
H		 0.2683035	1.004095	0.9569945
H		 0.220941	0.952639	1.00315
O		 0.4752295	0.810341	0.564257
H		 0.455387	0.837572	0.525557
H		 0.4376635	0.7851		0.5884355
O		 0.073975	0.5711565	0.7088245
H		 0.1102735	0.5572455	0.6753265
H		 0.092191	0.5667385	0.756593
O		 0.121899	0.5832505	0.5455975
H		 0.086401	0.557887	0.5185815
H		 0.098843	0.612776	0.5806695
O		 0.2913125	0.984061	0.8737955
H		 0.336734	1.006125	0.8829035
H		 0.2968215	0.947747	0.837959
O		 0.0102165	0.9206265	0.8359355
H		 0.060405	0.9284705	0.8432115
H		 0.002104	0.8712655	0.824503
O		 0.424692	0.8890725	0.964526
H		 0.3792495	0.866505	0.956855
H		 0.440142	0.911609	0.921091
O		 0.42978	0.5182205	0.700669
H		 0.4131965	0.5029395	0.654575
H		 0.479526	0.5304635	0.697749
O		 0.1326085	0.8054895	0.8085615
H		 0.1560135	0.836898	0.7754135
H		 0.167861	0.7798285	0.8356185
O		 0.2134185	0.51268		0.637485
H		 0.2260155	0.513542	0.587753
H		 0.2271395	0.5570135	0.6593745
O		 0.220372	0.645983	0.7229365
H		 0.2711255	0.6403		0.727924
H		 0.210347	0.6908285	0.7001025
O		 0.182306	0.7654185	0.648097
H		 0.175379	0.8141345	0.6626545
H		 0.1378155	0.7460695	0.631385
O		 0.555404	0.17561		0.384878
H		 0.5782535	0.221555	0.385427
H		 0.590209	0.139086	0.3942375
O		 0.98712	0.0439435	0.013319
H		 0.941782	0.028878	0.032038
H		 1.0114825	0.003617	-0.007016
O		 0.7469365	0.214481	0.3522375
H		 0.729444	0.1767		0.3222445
H		 0.745678	0.1993745	0.4012615
O		 0.6718495	0.3758155	0.005059
H		 0.6612735	0.3278075	-0.009668
H		 0.659996	0.3814955	0.0546625
O		 0.938567	0.288802	0.2957785
H		 0.972628	0.280212	0.2583715
H		 0.9267085	0.2444165	0.318633
O		 0.80959	0.330218	0.4195015
H		 0.7668675	0.3230035	0.446997
H		 0.810329	0.297337	0.38011
O		 0.857645	0.407857	0.269387
H		 0.885313	0.3681615	0.286469
H		 0.8871495	0.4498045	0.2676965
O		 0.54153	0.2172365	0.2438245
H		 0.5368195	0.168336	0.2586385
H		 0.58433	0.237156	0.263939
O		 0.5799415	0.380411	0.12349
H		 0.539851	0.3669105	0.094447
H		 0.5631625	0.403553	0.166105
O		 0.645924	0.2503975	0.4736905
H		 0.684973	0.219364	0.4857335
H		 0.607409	0.24306		0.5067975
O		 0.6491915	0.43757		0.379515
H		 0.633475	0.405017	0.4159365
H		 0.699919	0.444307	0.3833275
O		 0.7276395	0.391158	0.205282
H		 0.7763445	0.3963095	0.2205925
H		 0.7160745	0.4285955	0.172149
O		 0.8946805	0.150896	0.0143175
H		 0.932434	0.1161675	0.0156415
H		 0.8994715	0.1828995	0.054141
O		 0.8803675	0.2560695	0.1451745
H		 0.837034	0.283212	0.1408795
H		 0.878279	0.227085	0.187466
O		 0.648339	0.0628755	0.3299815
H		 0.6460115	0.0124855	0.3393885
H		 0.6948345	0.0747525	0.3118105
O		 0.8820595	0.478671	0.0730465
H		 0.8338055	0.4899855	0.059762
H		 0.8957035	0.434101	0.051588
O		 0.555166	0.2073435	0.09952
H		 0.5347425	0.2478545	0.075547
H		 0.54157	0.208098	0.1489935
O		 0.752078	0.1638925	-0.0014815
H		 0.801564	0.154773	0.008581
H		 0.7229325	0.1304715	0.024339
O		 0.8533145	0.1345835	0.244476
H		 0.8871705	0.099444	0.228595
H		 0.863356	0.147221	0.293182
O		 0.907798	0.147457	0.375872
H		 0.8977815	0.1481905	0.426194
H		 0.957012	0.1597		0.368052
O		 0.7559755	0.490097	0.504797
H		 0.7683035	0.504095	0.4569945
H		 0.720941	0.452639	0.50315
O		 0.9752295	0.310341	0.064257
H		 0.955387	0.337572	0.025557
H		 0.9376635	0.2851		0.0884355
O		 0.573975	0.0711565	0.2088245
H		 0.6102735	0.0572455	0.1753265
H		 0.592191	0.0667385	0.256593
O		 0.621899	0.0832505	0.0455975
H		 0.586401	0.057887	0.0185815
H		 0.598843	0.112776	0.0806695
O		 0.7913125	0.484061	0.3737955
H		 0.836734	0.506125	0.3829035
H		 0.7968215	0.447747	0.337959
O		 0.5102165	0.4206265	0.3359355
H		 0.560405	0.4284705	0.3432115
H		 0.502104	0.3712655	0.324503
O		 0.924692	0.3890725	0.464526
H		 0.8792495	0.366505	0.456855
H		 0.940142	0.411609	0.421091
O		 0.92978	0.0182205	0.200669
H		 0.9131965	0.0029395	0.154575
H		 0.979526	0.0304635	0.197749
O		 0.6326085	0.3054895	0.3085615
H		 0.6560135	0.336898	0.2754135
H		 0.667861	0.2798285	0.3356185
O		 0.7134185	0.01268		0.137485
H		 0.7260155	0.013542	0.087753
H		 0.7271395	0.0570135	0.1593745
O		 0.720372	0.145983	0.2229365
H		 0.7711255	0.1403		0.227924
H		 0.710347	0.1908285	0.2001025
O		 0.682306	0.2654185	0.148097
H		 0.675379	0.3141345	0.1626545
H		 0.6378155	0.2460695	0.131385
O		 0.555404	0.17561		0.884878
H		 0.5782535	0.221555	0.885427
H		 0.590209	0.139086	0.8942375
O		 0.98712	0.0439435	0.513319
H		 0.941782	0.028878	0.532038
H		 1.0114825	0.003617	0.492984
O		 0.7469365	0.214481	0.8522375
H		 0.729444	0.1767		0.8222445
H		 0.745678	0.1993745	0.9012615
O		 0.6718495	0.3758155	0.505059
H		 0.6612735	0.3278075	0.490332
H		 0.659996	0.3814955	0.5546625
O		 0.938567	0.288802	0.7957785
H		 0.972628	0.280212	0.7583715
H		 0.9267085	0.2444165	0.818633
O		 0.80959	0.330218	0.9195015
H		 0.7668675	0.3230035	0.946997
H		 0.810329	0.297337	0.88011
O		 0.857645	0.407857	0.769387
H		 0.885313	0.3681615	0.786469
H		 0.8871495	0.4498045	0.7676965
O		 0.54153	0.2172365	0.7438245
H		 0.5368195	0.168336	0.7586385
H		 0.58433	0.237156	0.763939
O		 0.5799415	0.380411	0.62349
H		 0.539851	0.3669105	0.594447
H		 0.5631625	0.403553	0.666105
O		 0.645924	0.2503975	0.9736905
H		 0.684973	0.219364	0.9857335
H		 0.607409	0.24306		1.0067975
O		 0.6491915	0.43757		0.879515
H		 0.633475	0.405017	0.9159365
H		 0.699919	0.444307	0.8833275
O		 0.7276395	0.391158	0.705282
H		 0.7763445	0.3963095	0.7205925
H		 0.7160745	0.4285955	0.672149
O		 0.8946805	0.150896	0.5143175
H		 0.932434	0.1161675	0.5156415
H		 0.8994715	0.1828995	0.554141
O		 0.8803675	0.2560695	0.6451745
H		 0.837034	0.283212	0.6408795
H		 0.878279	0.227085	0.687466
O		 0.648339	0.0628755	0.8299815
H		 0.6460115	0.0124855	0.8393885
H		 0.6948345	0.0747525	0.8118105
O		 0.8820595	0.478671	0.5730465
H		 0.8338055	0.4899855	0.559762
H		 0.8957035	0.434101	0.551588
O		 0.555166	0.2073435	0.59952
H		 0.5347425	0.2478545	0.575547
H		 0.54157	0.208098	0.6489935
O		 0.752078	0.1638925	0.4985185
H		 0.801564	0.154773	0.508581
H		 0.7229325	0.1304715	0.524339
O		 0.8533145	0.1345835	0.744476
H		 0.8871705	0.099444	0.728595
H		 0.863356	0.147221	0.793182
O		 0.907798	0.147457	0.875872
H		 0.8977815	0.1481905	0.926194
H		 0.957012	0.1597		0.868052
O		 0.7559755	0.490097	1.004797
H		 0.7683035	0.504095	0.9569945
H		 0.720941	0.452639	1.00315
O		 0.9752295	0.310341	0.564257
H		 0.955387	0.337572	0.525557
H		 0.9376635	0.2851		0.5884355
O		 0.573975	0.0711565	0.7088245
H		 0.6102735	0.0572455	0.6753265
H		 0.592191	0.0667385	0.756593
O		 0.621899	0.0832505	0.5455975
H		 0.586401	0.057887	0.5185815
H		 0.598843	0.112776	0.5806695
O		 0.7913125	0.484061	0.8737955
H		 0.836734	0.506125	0.8829035
H		 0.7968215	0.447747	0.837959
O		 0.5102165	0.4206265	0.8359355
H		 0.560405	0.4284705	0.8432115
H		 0.502104	0.3712655	0.824503
O		 0.924692	0.3890725	0.964526
H		 0.8792495	0.366505	0.956855
H		 0.940142	0.411609	0.921091
O		 0.92978	0.0182205	0.700669
H		 0.9131965	0.0029395	0.654575
H		 0.979526	0.0304635	0.697749
O		 0.6326085	0.3054895	0.8085615
H		 0.6560135	0.336898	0.7754135
H		 0.667861	0.2798285	0.8356185
O		 0.7134185	0.01268		0.637485
H		 0.7260155	0.013542	0.587753
H		 0.7271395	0.0570135	0.6593745
O		 0.720372	0.145983	0.7229365
H		 0.7711255	0.1403		0.727924
H		 0.710347	0.1908285	0.7001025
O		 0.682306	0.2654185	0.648097
H		 0.675379	0.3141345	0.6626545
H		 0.6378155	0.2460695	0.631385
O		 0.555404	0.67561		0.384878
H		 0.5782535	0.721555	0.385427
H		 0.590209	0.639086	0.3942375
O		 0.98712	0.5439435	0.013319
H		 0.941782	0.528878	0.032038
H		 1.0114825	0.503617	-0.007016
O		 0.7469365	0.714481	0.3522375
H		 0.729444	0.6767		0.3222445
H		 0.745678	0.6993745	0.4012615
O		 0.6718495	0.8758155	0.005059
H		 0.6612735	0.8278075	-0.009668
H		 0.659996	0.8814955	0.0546625
O		 0.938567	0.788802	0.2957785
H		 0.972628	0.780212	0.2583715
H		 0.9267085	0.7444165	0.318633
O		 0.80959	0.830218	0.4195015
H		 0.7668675	0.8230035	0.446997
H		 0.810329	0.797337	0.38011
O		 0.857645	0.907857	0.269387
H		 0.885313	0.8681615	0.286469
H		 0.8871495	0.9498045	0.2676965
O		 0.54153	0.7172365	0.2438245
H		 0.5368195	0.668336	0.2586385
H		 0.58433	0.737156	0.263939
O		 0.5799415	0.880411	0.12349
H		 0.539851	0.8669105	0.094447
H		 0.5631625	0.903553	0.166105
O		 0.645924	0.7503975	0.4736905
H		 0.684973	0.719364	0.4857335
H		 0.607409	0.74306		0.5067975
O		 0.6491915	0.93757		0.379515
H		 0.633475	0.905017	0.4159365
H		 0.699919	0.944307	0.3833275
O		 0.7276395	0.891158	0.205282
H		 0.7763445	0.8963095	0.2205925
H		 0.7160745	0.9285955	0.172149
O		 0.8946805	0.650896	0.0143175
H		 0.932434	0.6161675	0.0156415
H		 0.8994715	0.6828995	0.054141
O		 0.8803675	0.7560695	0.1451745
H		 0.837034	0.783212	0.1408795
H		 0.878279	0.727085	0.187466
O		 0.648339	0.5628755	0.3299815
H		 0.6460115	0.5124855	0.3393885
H		 0.6948345	0.5747525	0.3118105
O		 0.8820595	0.978671	0.0730465
H		 0.8338055	0.9899855	0.059762
H		 0.8957035	0.934101	0.051588
O		 0.555166	0.7073435	0.09952
H		 0.5347425	0.7478545	0.075547
H		 0.54157	0.708098	0.1489935
O		 0.752078	0.6638925	-0.0014815
H		 0.801564	0.654773	0.008581
H		 0.7229325	0.6304715	0.024339
O		 0.8533145	0.6345835	0.244476
H		 0.8871705	0.599444	0.228595
H		 0.863356	0.647221	0.293182
O		 0.907798	0.647457	0.375872
H		 0.8977815	0.6481905	0.426194
H		 0.957012	0.6597		0.368052
O		 0.7559755	0.990097	0.504797
H		 0.7683035	1.004095	0.4569945
H		 0.720941	0.952639	0.50315
O		 0.9752295	0.810341	0.064257
H		 0.955387	0.837572	0.025557
H		 0.9376635	0.7851		0.0884355
O		 0.573975	0.5711565	0.2088245
H		 0.6102735	0.5572455	0.1753265
H		 0.592191	0.5667385	0.256593
O		 0.621899	0.5832505	0.0455975
H		 0.586401	0.557887	0.0185815
H		 0.598843	0.612776	0.0806695
O		 0.7913125	0.984061	0.3737955
H		 0.836734	1.006125	0.3829035
H		 0.7968215	0.947747	0.337959
O		 0.5102165	0.9206265	0.3359355
H		 0.560405	0.9284705	0.3432115
H		 0.502104	0.8712655	0.324503
O		 0.924692	0.8890725	0.464526
H		 0.8792495	0.866505	0.456855
H		 0.940142	0.911609	0.421091
O		 0.92978	0.5182205	0.200669
H		 0.9131965	0.5029395	0.154575
H		 0.979526	0.5304635	0.197749
O		 0.6326085	0.8054895	0.3085615
H		 0.6560135	0.836898	0.2754135
H		 0.667861	0.7798285	0.3356185
O		 0.7134185	0.51268		0.137485
H		 0.7260155	0.513542	0.087753
H		 0.7271395	0.5570135	0.1593745
O		 0.720372	0.645983	0.2229365
H		 0.7711255	0.6403		0.227924
H		 0.710347	0.6908285	0.2001025
O		 0.682306	0.7654185	0.148097
H		 0.675379	0.8141345	0.1626545
H		 0.6378155	0.7460695	0.131385
O		 0.555404	0.67561		0.884878
H		 0.5782535	0.721555	0.885427
H		 0.590209	0.639086	0.8942375
O		 0.98712	0.5439435	0.513319
H		 0.941782	0.528878	0.532038
H		 1.0114825	0.503617	0.492984
O		 0.7469365	0.714481	0.8522375
H		 0.729444	0.6767		0.8222445
H		 0.745678	0.6993745	0.9012615
O		 0.6718495	0.8758155	0.505059
H		 0.6612735	0.8278075	0.490332
H		 0.659996	0.8814955	0.5546625
O		 0.938567	0.788802	0.7957785
H		 0.972628	0.780212	0.7583715
H		 0.9267085	0.7444165	0.818633
O		 0.80959	0.830218	0.9195015
H		 0.7668675	0.8230035	0.946997
H		 0.810329	0.797337	0.88011
O		 0.857645	0.907857	0.769387
H		 0.885313	0.8681615	0.786469
H		 0.8871495	0.9498045	0.7676965
O		 0.54153	0.7172365	0.7438245
H		 0.5368195	0.668336	0.7586385
H		 0.58433	0.737156	0.763939
O		 0.5799415	0.880411	0.62349
H		 0.539851	0.8669105	0.594447
H		 0.5631625	0.903553	0.666105
O		 0.645924	0.7503975	0.9736905
H		 0.684973	0.719364	0.9857335
H		 0.607409	0.74306		1.0067975
O		 0.6491915	0.93757		0.879515
H		 0.633475	0.905017	0.9159365
H		 0.699919	0.944307	0.8833275
O		 0.7276395	0.891158	0.705282
H		 0.7763445	0.8963095	0.7205925
H		 0.7160745	0.9285955	0.672149
O		 0.8946805	0.650896	0.5143175
H		 0.932434	0.6161675	0.5156415
H		 0.8994715	0.6828995	0.554141
O		 0.8803675	0.7560695	0.6451745
H		 0.837034	0.783212	0.6408795
H		 0.878279	0.727085	0.687466
O		 0.648339	0.5628755	0.8299815
H		 0.6460115	0.5124855	0.8393885
H		 0.6948345	0.5747525	0.8118105
O		 0.8820595	0.978671	0.5730465
H		 0.8338055	0.9899855	0.559762
H		 0.8957035	0.934101	0.551588
O		 0.555166	0.7073435	0.59952
H		 0.5347425	0.7478545	0.575547
H		 0.54157	0.708098	0.6489935
O		 0.752078	0.6638925	0.4985185
H		 0.801564	0.654773	0.508581
H		 0.7229325	0.6304715	0.524339
O		 0.8533145	0.6345835	0.744476
H		 0.8871705	0.599444	0.728595
H		 0.863356	0.647221	0.793182
O		 0.907798	0.647457	0.875872
H		 0.8977815	0.6481905	0.926194
H		 0.957012	0.6597		0.868052
O		 0.7559755	0.990097	1.004797
H		 0.7683035	1.004095	0.9569945
H		 0.720941	0.952639	1.00315
O		 0.9752295	0.810341	0.564257
H		 0.955387	0.837572	0.525557
H		 0.9376635	0.7851		0.5884355
O		 0.573975	0.5711565	0.7088245
H		 0.6102735	0.5572455	0.6753265
H		 0.592191	0.5667385	0.756593
O		 0.621899	0.5832505	0.5455975
H		 0.586401	0.557887	0.5185815
H		 0.598843	0.612776	0.5806695
O		 0.7913125	0.984061	0.8737955
H		 0.836734	1.006125	0.8829035
H		 0.7968215	0.947747	0.837959
O		 0.5102165	0.9206265	0.8359355
H		 0.560405	0.9284705	0.8432115
H		 0.502104	0.8712655	0.824503
O		 0.924692	0.8890725	0.964526
H		 0.8792495	0.866505	0.956855
H		 0.940142	0.911609	0.921091
O		 0.92978	0.5182205	0.700669
H		 0.9131965	0.5029395	0.654575
H		 0.979526	0.5304635	0.697749
O		 0.6326085	0.8054895	0.8085615
H		 0.6560135	0.836898	0.7754135
H		 0.667861	0.7798285	0.8356185
O		 0.7134185	0.51268		0.637485
H		 0.7260155	0.513542	0.587753
H		 0.7271395	0.5570135	0.6593745
O		 0.720372	0.645983	0.7229365
H		 0.7711255	0.6403		0.727924
H		 0.710347	0.6908285	0.7001025
O		 0.682306	0.7654185	0.648097
H		 0.675379	0.8141345	0.6626545
H		 0.6378155	0.7460695	0.631385
K_POINTS automatic
1 1 1 1 1 1
