&control
iprint = 1
prefix = 'water'
calculation = 'scf'
restart_mode = 'from_scratch'
wf_collect = .true.
disk_io = 'none'
tstress = .false.
tprnfor = .false.
outdir = './'
wfcdir = './'
pseudo_dir = './'
/
&system
ibrav = 1
celldm(1) = 30.49866567
nat = 384
ntyp = 2
ecutwfc = 80.0
ecutfock = 90.0
input_dft = 'pbe0'
/
&electrons
diago_thr_init=5.0d-4
! startingwfc='file'
! startingpot='file'
mixing_mode = 'plain'
mixing_beta = 0.7
mixing_ndim = 8
diagonalization = 'david'
diago_david_ndim = 4
diago_full_acc = .true.
electron_maxstep = 30
scf_must_converge = .false.
/
ATOMIC_SPECIES
O   15.999   O.pbe-mt_fhi.UPF
H    1.008   H.pbe-mt_fhi.UPF
ATOMIC_POSITIONS alat
O	0.2026845	0.283678	0.221096
H	0.2359325	0.24108	0.1907785
H	0.2214335	0.2863795	0.280089
O	0.2923395	0.131238	0.10787
H	0.344529	0.102395	0.1247295
H	0.2516375	0.089588	0.0867165
O	0.306968	0.234042	0.3506795
H	0.360081	0.2105405	0.329091
H	0.3146885	0.251899	0.409508
O	0.3462495	0.285737	0.004398
H	0.4079325	0.2811695	0.008091
H	0.3201655	0.244566	0.042659
O	0.069271	0.3839735	0.161135
H	0.026332	0.3859095	0.2057655
H	0.119868	0.3552095	0.182394
O	0.063641	0.311639	0.382896
H	0.0378905	0.346634	0.3387205
H	0.1215	0.331091	0.393547
O	0.2863995	0.4222385	0.2712645
H	0.2782895	0.483499	0.26671
H	0.2741485	0.39567	0.216646
O	-0.0038385	0.49643	0.0479835
H	0.032074	0.505922	-0.0016095
H	0.024013	0.4565025	0.0863125
O	0.0176685	0.273659	0.0425425
H	0.036366	0.3129175	0.0866895
H	0.0449585	0.288381	-0.011097
O	0.333004	0.4500775	0.0918385
H	0.3866495	0.468728	0.0670725
H	0.3046445	0.4112035	0.052803
O	0.2217235	0.3688775	0.418076
H	0.2630205	0.3328255	0.446953
H	0.24165	0.3812745	0.360732
O	0.4672465	0.1893825	0.313925
H	0.5063605	0.224621	0.3466005
H	0.4778515	0.1974115	0.253408
O	0.003193	0.135122	0.1346635
H	0.0106155	0.1823985	0.095306
H	0.0109315	0.0816255	0.1043775
O	0.4681685	0.427971	0.3059995
H	0.478305	0.4862375	0.3244825
H	0.4075225	0.4195865	0.2964575
O	0.1144405	0.0187545	0.424817
H	0.131969	0.032931	0.3671065
H	0.141288	-0.03434	0.44211
O	0.1730935	0.0883395	0.276914
H	0.1237605	0.1091735	0.2457445
H	0.2013355	0.1358045	0.305005
O	0.2026845	0.283678	0.721096
H	0.2359325	0.24108	0.6907785
H	0.2214335	0.2863795	0.780089
O	0.2923395	0.131238	0.60787
H	0.344529	0.102395	0.6247295
H	0.2516375	0.089588	0.5867165
O	0.306968	0.234042	0.8506795
H	0.360081	0.2105405	0.829091
H	0.3146885	0.251899	0.909508
O	0.3462495	0.285737	0.504398
H	0.4079325	0.2811695	0.508091
H	0.3201655	0.244566	0.542659
O	0.069271	0.3839735	0.661135
H	0.026332	0.3859095	0.7057655
H	0.119868	0.3552095	0.682394
O	0.063641	0.311639	0.882896
H	0.0378905	0.346634	0.8387205
H	0.1215	0.331091	0.893547
O	0.2863995	0.4222385	0.7712645
H	0.2782895	0.483499	0.76671
H	0.2741485	0.39567	0.716646
O	-0.0038385	0.49643	0.5479835
H	0.032074	0.505922	0.4983905
H	0.024013	0.4565025	0.5863125
O	0.0176685	0.273659	0.5425425
H	0.036366	0.3129175	0.5866895
H	0.0449585	0.288381	0.488903
O	0.333004	0.4500775	0.5918385
H	0.3866495	0.468728	0.5670725
H	0.3046445	0.4112035	0.552803
O	0.2217235	0.3688775	0.918076
H	0.2630205	0.3328255	0.946953
H	0.24165	0.3812745	0.860732
O	0.4672465	0.1893825	0.813925
H	0.5063605	0.224621	0.8466005
H	0.4778515	0.1974115	0.753408
O	0.003193	0.135122	0.6346635
H	0.0106155	0.1823985	0.595306
H	0.0109315	0.0816255	0.6043775
O	0.4681685	0.427971	0.8059995
H	0.478305	0.4862375	0.8244825
H	0.4075225	0.4195865	0.7964575
O	0.1144405	0.0187545	0.924817
H	0.131969	0.032931	0.8671065
H	0.141288	-0.03434	0.94211
O	0.1730935	0.0883395	0.776914
H	0.1237605	0.1091735	0.7457445
H	0.2013355	0.1358045	0.805005
O	0.2026845	0.783678	0.221096
H	0.2359325	0.74108	0.1907785
H	0.2214335	0.7863795	0.280089
O	0.2923395	0.631238	0.10787
H	0.344529	0.602395	0.1247295
H	0.2516375	0.589588	0.0867165
O	0.306968	0.734042	0.3506795
H	0.360081	0.7105405	0.329091
H	0.3146885	0.751899	0.409508
O	0.3462495	0.785737	0.004398
H	0.4079325	0.7811695	0.008091
H	0.3201655	0.744566	0.042659
O	0.069271	0.8839735	0.161135
H	0.026332	0.8859095	0.2057655
H	0.119868	0.8552095	0.182394
O	0.063641	0.811639	0.382896
H	0.0378905	0.846634	0.3387205
H	0.1215	0.831091	0.393547
O	0.2863995	0.9222385	0.2712645
H	0.2782895	0.983499	0.26671
H	0.2741485	0.89567	0.216646
O	-0.0038385	0.99643	0.0479835
H	0.032074	1.005922	-0.0016095
H	0.024013	0.9565025	0.0863125
O	0.0176685	0.773659	0.0425425
H	0.036366	0.8129175	0.0866895
H	0.0449585	0.788381	-0.011097
O	0.333004	0.9500775	0.0918385
H	0.3866495	0.968728	0.0670725
H	0.3046445	0.9112035	0.052803
O	0.2217235	0.8688775	0.418076
H	0.2630205	0.8328255	0.446953
H	0.24165	0.8812745	0.360732
O	0.4672465	0.6893825	0.313925
H	0.5063605	0.724621	0.3466005
H	0.4778515	0.6974115	0.253408
O	0.003193	0.635122	0.1346635
H	0.0106155	0.6823985	0.095306
H	0.0109315	0.5816255	0.1043775
O	0.4681685	0.927971	0.3059995
H	0.478305	0.9862375	0.3244825
H	0.4075225	0.9195865	0.2964575
O	0.1144405	0.5187545	0.424817
H	0.131969	0.532931	0.3671065
H	0.141288	0.46566	0.44211
O	0.1730935	0.5883395	0.276914
H	0.1237605	0.6091735	0.2457445
H	0.2013355	0.6358045	0.305005
O	0.2026845	0.783678	0.721096
H	0.2359325	0.74108	0.6907785
H	0.2214335	0.7863795	0.780089
O	0.2923395	0.631238	0.60787
H	0.344529	0.602395	0.6247295
H	0.2516375	0.589588	0.5867165
O	0.306968	0.734042	0.8506795
H	0.360081	0.7105405	0.829091
H	0.3146885	0.751899	0.909508
O	0.3462495	0.785737	0.504398
H	0.4079325	0.7811695	0.508091
H	0.3201655	0.744566	0.542659
O	0.069271	0.8839735	0.661135
H	0.026332	0.8859095	0.7057655
H	0.119868	0.8552095	0.682394
O	0.063641	0.811639	0.882896
H	0.0378905	0.846634	0.8387205
H	0.1215	0.831091	0.893547
O	0.2863995	0.9222385	0.7712645
H	0.2782895	0.983499	0.76671
H	0.2741485	0.89567	0.716646
O	-0.0038385	0.99643	0.5479835
H	0.032074	1.005922	0.4983905
H	0.024013	0.9565025	0.5863125
O	0.0176685	0.773659	0.5425425
H	0.036366	0.8129175	0.5866895
H	0.0449585	0.788381	0.488903
O	0.333004	0.9500775	0.5918385
H	0.3866495	0.968728	0.5670725
H	0.3046445	0.9112035	0.552803
O	0.2217235	0.8688775	0.918076
H	0.2630205	0.8328255	0.946953
H	0.24165	0.8812745	0.860732
O	0.4672465	0.6893825	0.813925
H	0.5063605	0.724621	0.8466005
H	0.4778515	0.6974115	0.753408
O	0.003193	0.635122	0.6346635
H	0.0106155	0.6823985	0.595306
H	0.0109315	0.5816255	0.6043775
O	0.4681685	0.927971	0.8059995
H	0.478305	0.9862375	0.8244825
H	0.4075225	0.9195865	0.7964575
O	0.1144405	0.5187545	0.924817
H	0.131969	0.532931	0.8671065
H	0.141288	0.46566	0.94211
O	0.1730935	0.5883395	0.776914
H	0.1237605	0.6091735	0.7457445
H	0.2013355	0.6358045	0.805005
O	0.7026845	0.283678	0.221096
H	0.7359325	0.24108	0.1907785
H	0.7214335	0.2863795	0.280089
O	0.7923395	0.131238	0.10787
H	0.844529	0.102395	0.1247295
H	0.7516375	0.089588	0.0867165
O	0.806968	0.234042	0.3506795
H	0.860081	0.2105405	0.329091
H	0.8146885	0.251899	0.409508
O	0.8462495	0.285737	0.004398
H	0.9079325	0.2811695	0.008091
H	0.8201655	0.244566	0.042659
O	0.569271	0.3839735	0.161135
H	0.526332	0.3859095	0.2057655
H	0.619868	0.3552095	0.182394
O	0.563641	0.311639	0.382896
H	0.5378905	0.346634	0.3387205
H	0.6215	0.331091	0.393547
O	0.7863995	0.4222385	0.2712645
H	0.7782895	0.483499	0.26671
H	0.7741485	0.39567	0.216646
O	0.4961615	0.49643	0.0479835
H	0.532074	0.505922	-0.0016095
H	0.524013	0.4565025	0.0863125
O	0.5176685	0.273659	0.0425425
H	0.536366	0.3129175	0.0866895
H	0.5449585	0.288381	-0.011097
O	0.833004	0.4500775	0.0918385
H	0.8866495	0.468728	0.0670725
H	0.8046445	0.4112035	0.052803
O	0.7217235	0.3688775	0.418076
H	0.7630205	0.3328255	0.446953
H	0.74165	0.3812745	0.360732
O	0.9672465	0.1893825	0.313925
H	1.0063605	0.224621	0.3466005
H	0.9778515	0.1974115	0.253408
O	0.503193	0.135122	0.1346635
H	0.5106155	0.1823985	0.095306
H	0.5109315	0.0816255	0.1043775
O	0.9681685	0.427971	0.3059995
H	0.978305	0.4862375	0.3244825
H	0.9075225	0.4195865	0.2964575
O	0.6144405	0.0187545	0.424817
H	0.631969	0.032931	0.3671065
H	0.641288	-0.03434	0.44211
O	0.6730935	0.0883395	0.276914
H	0.6237605	0.1091735	0.2457445
H	0.7013355	0.1358045	0.305005
O	0.7026845	0.283678	0.721096
H	0.7359325	0.24108	0.6907785
H	0.7214335	0.2863795	0.780089
O	0.7923395	0.131238	0.60787
H	0.844529	0.102395	0.6247295
H	0.7516375	0.089588	0.5867165
O	0.806968	0.234042	0.8506795
H	0.860081	0.2105405	0.829091
H	0.8146885	0.251899	0.909508
O	0.8462495	0.285737	0.504398
H	0.9079325	0.2811695	0.508091
H	0.8201655	0.244566	0.542659
O	0.569271	0.3839735	0.661135
H	0.526332	0.3859095	0.7057655
H	0.619868	0.3552095	0.682394
O	0.563641	0.311639	0.882896
H	0.5378905	0.346634	0.8387205
H	0.6215	0.331091	0.893547
O	0.7863995	0.4222385	0.7712645
H	0.7782895	0.483499	0.76671
H	0.7741485	0.39567	0.716646
O	0.4961615	0.49643	0.5479835
H	0.532074	0.505922	0.4983905
H	0.524013	0.4565025	0.5863125
O	0.5176685	0.273659	0.5425425
H	0.536366	0.3129175	0.5866895
H	0.5449585	0.288381	0.488903
O	0.833004	0.4500775	0.5918385
H	0.8866495	0.468728	0.5670725
H	0.8046445	0.4112035	0.552803
O	0.7217235	0.3688775	0.918076
H	0.7630205	0.3328255	0.946953
H	0.74165	0.3812745	0.860732
O	0.9672465	0.1893825	0.813925
H	1.0063605	0.224621	0.8466005
H	0.9778515	0.1974115	0.753408
O	0.503193	0.135122	0.6346635
H	0.5106155	0.1823985	0.595306
H	0.5109315	0.0816255	0.6043775
O	0.9681685	0.427971	0.8059995
H	0.978305	0.4862375	0.8244825
H	0.9075225	0.4195865	0.7964575
O	0.6144405	0.0187545	0.924817
H	0.631969	0.032931	0.8671065
H	0.641288	-0.03434	0.94211
O	0.6730935	0.0883395	0.776914
H	0.6237605	0.1091735	0.7457445
H	0.7013355	0.1358045	0.805005
O	0.7026845	0.783678	0.221096
H	0.7359325	0.74108	0.1907785
H	0.7214335	0.7863795	0.280089
O	0.7923395	0.631238	0.10787
H	0.844529	0.602395	0.1247295
H	0.7516375	0.589588	0.0867165
O	0.806968	0.734042	0.3506795
H	0.860081	0.7105405	0.329091
H	0.8146885	0.751899	0.409508
O	0.8462495	0.785737	0.004398
H	0.9079325	0.7811695	0.008091
H	0.8201655	0.744566	0.042659
O	0.569271	0.8839735	0.161135
H	0.526332	0.8859095	0.2057655
H	0.619868	0.8552095	0.182394
O	0.563641	0.811639	0.382896
H	0.5378905	0.846634	0.3387205
H	0.6215	0.831091	0.393547
O	0.7863995	0.9222385	0.2712645
H	0.7782895	0.983499	0.26671
H	0.7741485	0.89567	0.216646
O	0.4961615	0.99643	0.0479835
H	0.532074	1.005922	-0.0016095
H	0.524013	0.9565025	0.0863125
O	0.5176685	0.773659	0.0425425
H	0.536366	0.8129175	0.0866895
H	0.5449585	0.788381	-0.011097
O	0.833004	0.9500775	0.0918385
H	0.8866495	0.968728	0.0670725
H	0.8046445	0.9112035	0.052803
O	0.7217235	0.8688775	0.418076
H	0.7630205	0.8328255	0.446953
H	0.74165	0.8812745	0.360732
O	0.9672465	0.6893825	0.313925
H	1.0063605	0.724621	0.3466005
H	0.9778515	0.6974115	0.253408
O	0.503193	0.635122	0.1346635
H	0.5106155	0.6823985	0.095306
H	0.5109315	0.5816255	0.1043775
O	0.9681685	0.927971	0.3059995
H	0.978305	0.9862375	0.3244825
H	0.9075225	0.9195865	0.2964575
O	0.6144405	0.5187545	0.424817
H	0.631969	0.532931	0.3671065
H	0.641288	0.46566	0.44211
O	0.6730935	0.5883395	0.276914
H	0.6237605	0.6091735	0.2457445
H	0.7013355	0.6358045	0.305005
O	0.7026845	0.783678	0.721096
H	0.7359325	0.74108	0.6907785
H	0.7214335	0.7863795	0.780089
O	0.7923395	0.631238	0.60787
H	0.844529	0.602395	0.6247295
H	0.7516375	0.589588	0.5867165
O	0.806968	0.734042	0.8506795
H	0.860081	0.7105405	0.829091
H	0.8146885	0.751899	0.909508
O	0.8462495	0.785737	0.504398
H	0.9079325	0.7811695	0.508091
H	0.8201655	0.744566	0.542659
O	0.569271	0.8839735	0.661135
H	0.526332	0.8859095	0.7057655
H	0.619868	0.8552095	0.682394
O	0.563641	0.811639	0.882896
H	0.5378905	0.846634	0.8387205
H	0.6215	0.831091	0.893547
O	0.7863995	0.9222385	0.7712645
H	0.7782895	0.983499	0.76671
H	0.7741485	0.89567	0.716646
O	0.4961615	0.99643	0.5479835
H	0.532074	1.005922	0.4983905
H	0.524013	0.9565025	0.5863125
O	0.5176685	0.773659	0.5425425
H	0.536366	0.8129175	0.5866895
H	0.5449585	0.788381	0.488903
O	0.833004	0.9500775	0.5918385
H	0.8866495	0.968728	0.5670725
H	0.8046445	0.9112035	0.552803
O	0.7217235	0.8688775	0.918076
H	0.7630205	0.8328255	0.946953
H	0.74165	0.8812745	0.860732
O	0.9672465	0.6893825	0.813925
H	1.0063605	0.724621	0.8466005
H	0.9778515	0.6974115	0.753408
O	0.503193	0.635122	0.6346635
H	0.5106155	0.6823985	0.595306
H	0.5109315	0.5816255	0.6043775
O	0.9681685	0.927971	0.8059995
H	0.978305	0.9862375	0.8244825
H	0.9075225	0.9195865	0.7964575
O	0.6144405	0.5187545	0.924817
H	0.631969	0.532931	0.8671065
H	0.641288	0.46566	0.94211
O	0.6730935	0.5883395	0.776914
H	0.6237605	0.6091735	0.7457445
H	0.7013355	0.6358045	0.805005
K_POINTS automatic
1 1 1 1 1 1
