&control
! iprint = 1
prefix = 'water'
calculation = 'scf'
! restart_mode = 'restart'
wf_collect = .true.
disk_io = 'low'
tstress = .false.
tprnfor = .true.
outdir = './'
wfcdir = './'
pseudo_dir = '~/espresso/pseudo'
/
&system
ibrav = 8
celldm(1) = 21.1173115
celldm(2) = 0.868462972
celldm(3) = 1.815540554
nat = 141
ntyp = 3
occupations='smearing'
smearing='fd'
degauss=0.02
ecutwfc = 80.0
ecutfock = 90.0
input_dft = 'pbe'
/
&electrons
! conv_thr=1.0d6
! diago_thr_init=5.0d4
! startingwfc='file'
! startingpot='file'
mixing_mode = 'local-TF'
mixing_beta = 0.7
mixing_ndim = 8
diagonalization = 'david'
diago_david_ndim = 4
diago_full_acc = .true.
electron_maxstep=300
scf_must_converge=.false.
/
ATOMIC_SPECIES
Pt   195.084  Pt.pbe-mt_fhi.UPF
O    15.999    O.pbe-mt_fhi.UPF
H    1.00794   H.pbe-mt_fhi.UPF
ATOMIC_POSITIONS angstrom
Pt       6.221113427  -0.316991953  10.758627032
Pt       9.055862402  -0.302938369  10.704655395
Pt       0.726927922  -0.347024813  10.829032931
Pt       3.446994061  -0.305927659  10.795814143
Pt       4.859914642   2.107383363  10.795621528
Pt       7.654413655   2.079858308  10.798036562
Pt      -0.694659320   2.089307478  10.758912000
Pt       2.065299888   2.125531837  10.835011399
Pt       6.275358931   4.500299017  10.748157157
Pt       9.049721044   4.498277304  10.832489585
Pt       0.647063746   4.514743892  10.814977698
Pt       3.470363018   4.526192825  10.780550630
Pt       4.856086851  -2.717268354  10.721059420
Pt       7.674691668  -2.731247906  10.725705801
Pt      -0.769256389  -2.766274068  10.835059450
Pt       2.038115191  -2.832493806  10.730788422
Pt       4.832167690   1.966780451  13.434997735
Pt       7.637267914   2.059345711  13.438610340
Pt      -0.871989438   2.141035985  13.370457646
Pt       1.903939467   2.016789425  13.475888703
Pt       6.064260086   4.450798298  13.391939516
Pt       8.948412888   4.533714692  13.472581484
Pt       0.661375471   4.490167594  13.441328804
Pt       3.370864339   4.408028303  13.401087615
Pt       4.694625327   6.936046204  13.321825815
Pt       7.457288148   6.845009157  13.362111445
Pt      -0.747529046   6.897257690  13.503955029
Pt       2.015734723   6.939866816  13.362740783
Pt       6.231792005  -0.416335091  13.369312948
Pt       8.936756353  -0.469601543  13.309380843
Pt       0.448154328  -0.336344029  13.436020026
Pt       3.340520758  -0.346136269  13.414356693
Pt       6.312122725   2.411856691  15.825452512
Pt       9.126218051   2.393408498  15.879896040
Pt       0.687767770   2.411750975  15.857720686
Pt       3.469653653   2.435464559  15.797914643
Pt       7.692857023   4.830964889  15.850560241
Pt      10.508250388   4.863124178  15.812156628
Pt       2.165181674   4.870030613  15.863916664
Pt       4.947061805   4.842360980  15.838884591
Pt       6.314637674   7.273751467  15.814794471
Pt       9.047907432   7.281192680  15.815676136
Pt       0.765223433   7.256148819  15.852417941
Pt       3.595050252   7.259466353  15.831437122
Pt       7.734833859   9.716851552  15.817354231
Pt      10.505835249   9.671984706  15.880306086
Pt       2.082202174   9.682683044  15.819355746
Pt       4.902117297   9.702294523  15.753882782
O        6.426256320   6.763917546   1.140523563
H        5.870402470   7.555143340   1.074173042
H        7.030111368   6.838263809   0.393679594
O        3.321532940   2.101111988   7.769227822
H        4.185917569   1.843924769   7.340980841
H        3.467021755   2.038047103   8.739164003
O        6.589805136   0.133569870   1.066612784
H        7.264628463   0.674786935   0.644305917
H        5.743346031   0.462207113   0.735724470
O        8.585848229   3.832414842   1.304759175
H        9.546246659   3.703187227   1.219644845
H        8.466132723   4.295863029   2.142752611
O        4.777115255   6.390124623   4.883706198
H        5.638972720   6.067745006   4.522192324
H        4.576879953   5.851768374   5.674088489
O        4.159335523  -0.611179550   5.345458127
H        4.490995072  -1.526950366   5.210728881
H        4.872673264  -0.083733659   5.754696651
O        3.488958759   8.238903438   0.982009716
H        3.455789720   8.880179595   1.718738303
H        3.431183220   7.364494511   1.405377366
O        0.330061352   3.552832844   1.461849757
H        0.404366464   4.492011927   1.778096282
H        0.789253910   3.511057856   0.615764244
O        4.517685973   3.188051874   1.840382104
H        5.274883951   3.114887443   2.459648225
H        4.900422606   3.483968614   1.004433217
O        3.210382062   5.750590038   2.604476454
H        3.544902337   4.855549669   2.390099493
H        3.714585022   6.001697232   3.405560330
O        4.624544893  -2.266968308   8.332293593
H        3.756211352  -1.841748133   8.193259539
H        5.294777854  -1.699761612   7.906733138
O        8.872409902   0.013852976   8.396719260
H        9.614554687  -0.544918682   8.016784516
H        8.071797796  -0.383952288   7.996252588
O        6.252178182   2.637926353   4.019930416
H        6.854451903   1.849200649   3.944852866
H        6.782927901   3.448972439   3.970914215
O        1.911271551  -3.327810967   8.292269161
H        1.083309599  -3.750374037   7.994770354
H        2.629027702  -3.952386299   8.041502045
O        7.139115651   5.527282037   3.563623853
H        7.945841776   5.929729630   3.950101098
H        6.973648776   5.989746864   2.706481801
O        5.629156285   1.585535382   6.447832750
H        6.494807051   1.777063439   6.863339747
H        5.716660967   2.078518692   5.596615230
O       -1.543318790   6.406783163   4.806524670
H       -0.815942610   6.094428534   4.230046930
H       -1.373552416   6.046673435   5.692992482
O        0.005248954   2.102204401   8.118954697
H        0.970242176   2.206817891   8.205775170
H       -0.121607630   1.143732766   8.018477466
O       -0.316410444  -1.496954423   7.683398622
H       -0.230893403  -1.919515449   8.560634997
H        0.598564341  -1.185282323   7.470404114
O        7.087861150   5.576322000   7.483607851
H        7.665083285   4.869735928   7.152065601
H        7.358541891   5.699280698   8.415492390
O        0.411533271   6.026045350   2.596058377
H        0.279709172   6.885657838   2.106814021
H        1.380561473   5.946798311   2.720437510
O        4.002342917   4.815367615   7.277810488
H        3.870527152   3.847736861   7.372137852
H        4.817263316   5.052298297   7.747252854
O       -1.331415134   9.528077897   4.911249008
H       -0.613961887   9.930476989   4.391618701
H       -1.152634968   8.571869778   4.924869210
O       -0.735502700   5.031996780   7.737116599
H       -1.082020418   5.331893012   8.600429781
H       -0.733615611   4.065102444   7.800372401
O        2.214325173  -0.551251073   7.293697793
H        2.711614654  -0.689153217   6.454610337
H        2.444317011   0.363846342   7.545190533
O        8.101766851   2.772340394   7.200322762
H        8.830087074   2.155234300   7.045356183
H        8.109901736   2.904207894   8.160836752
O        0.424176531   8.519331210   1.454124065
H        0.376545315   9.352277587   1.972563399
H        1.334518725   8.498985056   1.115777361
O        3.327137564   0.567889718   2.965587668
H        3.732343462   0.254889553   3.809986977
H        3.805102959   1.364946639   2.664226872
O        0.572078347  10.878548336   3.034927388
H        1.548239086  10.780851874   3.082888103
H        0.437273168  11.709121941   2.534530184
O        6.933564182   8.279359130   6.815976724
H        7.073536403   8.561908454   5.891229303
H        7.058864519   7.303501748   6.834012119
O        7.325299625   0.127044330   3.904102012
H        8.287683862   0.005439468   4.095914875
H        7.158406818  -0.046518356   2.957024518
K_POINTS automatic
1 1 1 1 1 1
