&control
iprint = 1
prefix = 'water'
calculation = 'scf'
restart_mode = 'from_scratch'
wf_collect = .true.
disk_io = 'none'
tstress = .false.
tprnfor = .false.
outdir = './'
wfcdir = './'
pseudo_dir = './'
/
&system
ibrav = 1
celldm(1) = 18.413867978
nat = 96
ntyp = 2
ecutwfc = 80.0
ecutfock = 90.0
input_dft = 'pbe0'
/
&electrons
diago_thr_init=5.0d-4
! startingwfc='file'
! startingpot='file'
mixing_mode = 'plain'
mixing_beta = 0.7
mixing_ndim = 8
diagonalization = 'david'
diago_david_ndim = 4
diago_full_acc = .true.
electron_maxstep = 30
scf_must_converge = .false.
/
ATOMIC_SPECIES
O   15.999   O.pbe-mt_fhi.UPF
H    1.008   H.pbe-mt_fhi.UPF
ATOMIC_POSITIONS alat
 O   0.110808   0.351220   0.769756
 H   0.156507   0.443110   0.770854
 H   0.180418   0.278172   0.788475
 O   0.974240   0.087887   0.026638
 H   0.883564   0.057756   0.064076
 H   1.022965   0.007234  -0.014032
 O   0.493873   0.428962   0.704475
 H   0.458888   0.353400   0.644489
 H   0.491356   0.398749   0.802523
 O   0.343699   0.751631   0.010118
 H   0.322547   0.655615  -0.019336
 H   0.319992   0.762991   0.109325
 O   0.877134   0.577604   0.591557
 H   0.945256   0.560424   0.516743
 H   0.853417   0.488833   0.637266
 O   0.619180   0.660436   0.839003
 H   0.533735   0.646007   0.893994
 H   0.620658   0.594674   0.760220
 O   0.715290   0.815714   0.538774
 H   0.770626   0.736323   0.572938
 H   0.774299   0.899609   0.535393
 O   0.083060   0.434473   0.487649
 H   0.073639   0.336672   0.517277
 H   0.168660   0.474312   0.527878
 O   0.159883   0.760822   0.246980
 H   0.079702   0.733821   0.188894
 H   0.126325   0.807106   0.332210
 O   0.291848   0.500795   0.947381
 H   0.369946   0.438728   0.971467
 H   0.214818   0.486120   1.013595
 O   0.298383   0.875140   0.759030
 H   0.266950   0.810034   0.831873
 H   0.399838   0.888614   0.766655
 O   0.455279   0.782316   0.410564
 H   0.552689   0.792619   0.441185
 H   0.432149   0.857191   0.344298
 O   0.789361   0.301792   0.028635
 H   0.864868   0.232335   0.031283
 H   0.798943   0.365799   0.108282
 O   0.760735   0.512139   0.290349
 H   0.674068   0.566424   0.281759
 H   0.756558   0.454170   0.374932
 O   0.296678   0.125751   0.659963
 H   0.292023   0.024971   0.678777
 H   0.389669   0.149505   0.623621
 O   0.764119   0.957342   0.146093
 H   0.667611   0.979971   0.119524
 H   0.791407   0.868202   0.103176
 O   0.110332   0.414687   0.199040
 H   0.069485   0.495709   0.151094
 H   0.083140   0.416196   0.297987
 O   0.504156   0.327785  -0.002963
 H   0.603128   0.309546   0.017162
 H   0.445865   0.260943   0.048678
 O   0.706629   0.269167   0.488952
 H   0.774341   0.198888   0.457190
 H   0.726712   0.294442   0.586364
 O   0.815596   0.294914   0.751744
 H   0.795563   0.296381   0.852388
 H   0.914024   0.319400   0.736104
 O   0.511951   0.980194   1.009594
 H   0.536607   1.008190   0.913989
 H   0.441882   0.905278   1.006300
 O   0.950459   0.620682   0.128514
 H   0.910774   0.675144   0.051114
 H   0.875327   0.570200   0.176871
 O   0.147950   0.142313   0.417649
 H   0.220547   0.114491   0.350653
 H   0.184382   0.133477   0.513186
 O   0.243798   0.166501   0.091195
 H   0.172802   0.115774   0.037163
 H   0.197686   0.225552   0.161339
 O   0.582625   0.968122   0.747591
 H   0.673468   1.012250   0.765807
 H   0.593643   0.895494   0.675918
 O   0.020433   0.841253   0.671871
 H   0.120810   0.856941   0.686423
 H   0.004208   0.742531   0.649006
 O   0.849384   0.778145   0.929052
 H   0.758499   0.733010   0.913710
 H   0.880284   0.823218   0.842182
 O   0.859560   0.036441   0.401338
 H   0.826393   0.005879   0.309150
 H   0.959052   0.060927   0.395498
 O   0.265217   0.610979   0.617123
 H   0.312027   0.673796   0.550827
 H   0.335722   0.559657   0.671237
 O   0.426837   0.025360   0.274970
 H   0.452031   0.027084   0.175506
 H   0.454279   0.114027   0.318749
 O   0.440744   0.291966   0.445873
 H   0.542251   0.280600   0.455848
 H   0.420694   0.381657   0.400205
 O   0.364612   0.530837   0.296194
 H   0.350758   0.628269   0.325309
 H   0.275631   0.492139   0.262770
K_POINTS automatic
1 1 1 1 1 1
